1
1000
48
256 1
257 1
258 2
260 1
406 1
262 1
264 2
266 1
267 1
268 1
269 1
270 1
403 1
278 2
279 2
281 1
411 1
285 2
290 1
292 1
294 2
425 1
428 1
302 1
306 1
436 1
309 1
394 1
437 1
453 1
455 1
459 2
333 1
467 1
469 1
342 1
478 1
355 1
422 1
489 1
492 1
495 1
496 1
250 2
251 3
253 1
254 1
255 3
